
(set-option :produce-models true)
(set-option :inline-size-limit 10000)

(declare-const var0 String)

(push 1)
(assert (str.in.re var0 (re.* (re.range "\x01" "\xff"))))
(assert (str.in.re var0 (re.++ (re.*? re.allchar) (re.++ (re.++ (str.to.re "%") (re.++ (re.union (re.union (str.to.re "-") (re.union (str.to.re "+") (re.union (str.to.re "0") (re.union (re.union (str.to.re "\u{20}") (re.union (str.to.re "\u{0b}") (re.union (str.to.re "\u{0a}") (re.union (str.to.re "\u{0d}") (re.union (str.to.re "\u{09}") (str.to.re "\u{0c}")))))) (str.to.re "#"))))) (str.to.re "")) (re.++ (re.union ((_ re.capture 1) (re.+ (re.range "0" "9"))) (str.to.re "")) (re.++ (re.union ((_ re.capture 2) (re.++ (str.to.re ".") (re.+ (re.range "0" "9")))) (str.to.re "")) (re.++ (re.union (re.union (str.to.re "h") (re.union (str.to.re "l") (str.to.re "I"))) (str.to.re "")) (re.union (str.to.re "c") (re.union (str.to.re "C") (re.union (str.to.re "d") (re.union (str.to.re "i") (re.union (str.to.re "o") (re.union (str.to.re "u") (re.union (str.to.re "x") (re.union (str.to.re "X") (re.union (str.to.re "e") (re.union (str.to.re "E") (re.union (str.to.re "f") (re.union (str.to.re "g") (re.union (str.to.re "G") (re.union (str.to.re "n") (re.union (str.to.re "p") (re.union (str.to.re "s") (str.to.re "S")))))))))))))))))))))) re.all))))	; match!==null
(assert (not (str.in.re ((_ str.extract 1) var0 (re.++ (re.*? re.allchar) (re.++ (re.++ (str.to.re "%") (re.++ (re.union (re.union (str.to.re "-") (re.union (str.to.re "+") (re.union (str.to.re "0") (re.union (re.union (str.to.re "\u{20}") (re.union (str.to.re "\u{0b}") (re.union (str.to.re "\u{0a}") (re.union (str.to.re "\u{0d}") (re.union (str.to.re "\u{09}") (str.to.re "\u{0c}")))))) (str.to.re "#"))))) (str.to.re "")) (re.++ (re.union ((_ re.capture 1) (re.+ (re.range "0" "9"))) (str.to.re "")) (re.++ (re.union ((_ re.capture 2) (re.++ (str.to.re ".") (re.+ (re.range "0" "9")))) (str.to.re "")) (re.++ (re.union (re.union (str.to.re "h") (re.union (str.to.re "l") (str.to.re "I"))) (str.to.re "")) (re.union (str.to.re "c") (re.union (str.to.re "C") (re.union (str.to.re "d") (re.union (str.to.re "i") (re.union (str.to.re "o") (re.union (str.to.re "u") (re.union (str.to.re "x") (re.union (str.to.re "X") (re.union (str.to.re "e") (re.union (str.to.re "E") (re.union (str.to.re "f") (re.union (str.to.re "g") (re.union (str.to.re "G") (re.union (str.to.re "n") (re.union (str.to.re "p") (re.union (str.to.re "s") (str.to.re "S")))))))))))))))))))))) re.all))) (str.to.re "\x00"))))
;match[1]!==null
(assert (str.in.re ((_ str.extract 1) var0 (re.++ (re.*? re.allchar) (re.++ (re.++ (str.to.re "%") (re.++ (re.union (re.union (str.to.re "-") (re.union (str.to.re "+") (re.union (str.to.re "0") (re.union (re.union (str.to.re "\u{20}") (re.union (str.to.re "\u{0b}") (re.union (str.to.re "\u{0a}") (re.union (str.to.re "\u{0d}") (re.union (str.to.re "\u{09}") (str.to.re "\u{0c}")))))) (str.to.re "#"))))) (str.to.re "")) (re.++ (re.union ((_ re.capture 1) (re.+ (re.range "0" "9"))) (str.to.re "")) (re.++ (re.union ((_ re.capture 2) (re.++ (str.to.re ".") (re.+ (re.range "0" "9")))) (str.to.re "")) (re.++ (re.union (re.union (str.to.re "h") (re.union (str.to.re "l") (str.to.re "I"))) (str.to.re "")) (re.union (str.to.re "c") (re.union (str.to.re "C") (re.union (str.to.re "d") (re.union (str.to.re "i") (re.union (str.to.re "o") (re.union (str.to.re "u") (re.union (str.to.re "x") (re.union (str.to.re "X") (re.union (str.to.re "e") (re.union (str.to.re "E") (re.union (str.to.re "f") (re.union (str.to.re "g") (re.union (str.to.re "G") (re.union (str.to.re "n") (re.union (str.to.re "p") (re.union (str.to.re "s") (str.to.re "S")))))))))))))))))))))) re.all))) (re.++ re.all(re.+ (re.range "a" "z")) re.all) ))
;/[a-z]+/.test(match[1]) == true
(check-sat)
(get-model)
(pop 1)
(push 1)
(assert (str.in.re var0 (re.* (re.range "\x01" "\xff"))))
(assert (str.in.re var0 (re.++ (re.*? re.allchar) (re.++ (re.++ (str.to.re "%") (re.++ (re.union (re.union (str.to.re "-") (re.union (str.to.re "+") (re.union (str.to.re "0") (re.union (re.union (str.to.re "\u{20}") (re.union (str.to.re "\u{0b}") (re.union (str.to.re "\u{0a}") (re.union (str.to.re "\u{0d}") (re.union (str.to.re "\u{09}") (str.to.re "\u{0c}")))))) (str.to.re "#"))))) (str.to.re "")) (re.++ (re.union ((_ re.capture 1) (re.+ (re.range "0" "9"))) (str.to.re "")) (re.++ (re.union ((_ re.capture 2) (re.++ (str.to.re ".") (re.+ (re.range "0" "9")))) (str.to.re "")) (re.++ (re.union (re.union (str.to.re "h") (re.union (str.to.re "l") (str.to.re "I"))) (str.to.re "")) (re.union (str.to.re "c") (re.union (str.to.re "C") (re.union (str.to.re "d") (re.union (str.to.re "i") (re.union (str.to.re "o") (re.union (str.to.re "u") (re.union (str.to.re "x") (re.union (str.to.re "X") (re.union (str.to.re "e") (re.union (str.to.re "E") (re.union (str.to.re "f") (re.union (str.to.re "g") (re.union (str.to.re "G") (re.union (str.to.re "n") (re.union (str.to.re "p") (re.union (str.to.re "s") (str.to.re "S")))))))))))))))))))))) re.all))))	; match!==null
(assert (not (str.in.re ((_ str.extract 1) var0 (re.++ (re.*? re.allchar) (re.++ (re.++ (str.to.re "%") (re.++ (re.union (re.union (str.to.re "-") (re.union (str.to.re "+") (re.union (str.to.re "0") (re.union (re.union (str.to.re "\u{20}") (re.union (str.to.re "\u{0b}") (re.union (str.to.re "\u{0a}") (re.union (str.to.re "\u{0d}") (re.union (str.to.re "\u{09}") (str.to.re "\u{0c}")))))) (str.to.re "#"))))) (str.to.re "")) (re.++ (re.union ((_ re.capture 1) (re.+ (re.range "0" "9"))) (str.to.re "")) (re.++ (re.union ((_ re.capture 2) (re.++ (str.to.re ".") (re.+ (re.range "0" "9")))) (str.to.re "")) (re.++ (re.union (re.union (str.to.re "h") (re.union (str.to.re "l") (str.to.re "I"))) (str.to.re "")) (re.union (str.to.re "c") (re.union (str.to.re "C") (re.union (str.to.re "d") (re.union (str.to.re "i") (re.union (str.to.re "o") (re.union (str.to.re "u") (re.union (str.to.re "x") (re.union (str.to.re "X") (re.union (str.to.re "e") (re.union (str.to.re "E") (re.union (str.to.re "f") (re.union (str.to.re "g") (re.union (str.to.re "G") (re.union (str.to.re "n") (re.union (str.to.re "p") (re.union (str.to.re "s") (str.to.re "S")))))))))))))))))))))) re.all))) (str.to.re "\x00"))))	
;match[1]!==null
(assert (not (str.in.re ((_ str.extract 1) var0 (re.++ (re.*? re.allchar) (re.++ (re.++ (str.to.re "%") (re.++ (re.union (re.union (str.to.re "-") (re.union (str.to.re "+") (re.union (str.to.re "0") (re.union (re.union (str.to.re "\u{20}") (re.union (str.to.re "\u{0b}") (re.union (str.to.re "\u{0a}") (re.union (str.to.re "\u{0d}") (re.union (str.to.re "\u{09}") (str.to.re "\u{0c}")))))) (str.to.re "#"))))) (str.to.re "")) (re.++ (re.union ((_ re.capture 1) (re.+ (re.range "0" "9"))) (str.to.re "")) (re.++ (re.union ((_ re.capture 2) (re.++ (str.to.re ".") (re.+ (re.range "0" "9")))) (str.to.re "")) (re.++ (re.union (re.union (str.to.re "h") (re.union (str.to.re "l") (str.to.re "I"))) (str.to.re "")) (re.union (str.to.re "c") (re.union (str.to.re "C") (re.union (str.to.re "d") (re.union (str.to.re "i") (re.union (str.to.re "o") (re.union (str.to.re "u") (re.union (str.to.re "x") (re.union (str.to.re "X") (re.union (str.to.re "e") (re.union (str.to.re "E") (re.union (str.to.re "f") (re.union (str.to.re "g") (re.union (str.to.re "G") (re.union (str.to.re "n") (re.union (str.to.re "p") (re.union (str.to.re "s") (str.to.re "S")))))))))))))))))))))) re.all))) (re.++ re.all(re.+ (re.range "a" "z")) re.all) )))
;/[a-z]+/.test(match[1]) == false	
(check-sat)
(get-model)
(pop 1)
(push 1)
(assert (str.in.re var0 (re.* (re.range "\x01" "\xff"))))
(assert (str.in.re var0 (re.++ (re.*? re.allchar) (re.++ (re.++ (str.to.re "%") (re.++ (re.union (re.union (str.to.re "-") (re.union (str.to.re "+") (re.union (str.to.re "0") (re.union (re.union (str.to.re "\u{20}") (re.union (str.to.re "\u{0b}") (re.union (str.to.re "\u{0a}") (re.union (str.to.re "\u{0d}") (re.union (str.to.re "\u{09}") (str.to.re "\u{0c}")))))) (str.to.re "#"))))) (str.to.re "")) (re.++ (re.union ((_ re.capture 1) (re.+ (re.range "0" "9"))) (str.to.re "")) (re.++ (re.union ((_ re.capture 2) (re.++ (str.to.re ".") (re.+ (re.range "0" "9")))) (str.to.re "")) (re.++ (re.union (re.union (str.to.re "h") (re.union (str.to.re "l") (str.to.re "I"))) (str.to.re "")) (re.union (str.to.re "c") (re.union (str.to.re "C") (re.union (str.to.re "d") (re.union (str.to.re "i") (re.union (str.to.re "o") (re.union (str.to.re "u") (re.union (str.to.re "x") (re.union (str.to.re "X") (re.union (str.to.re "e") (re.union (str.to.re "E") (re.union (str.to.re "f") (re.union (str.to.re "g") (re.union (str.to.re "G") (re.union (str.to.re "n") (re.union (str.to.re "p") (re.union (str.to.re "s") (str.to.re "S")))))))))))))))))))))) re.all))))	; match!==null
(assert (str.in.re ((_ str.extract 1) var0 (re.++ (re.*? re.allchar) (re.++ (re.++ (str.to.re "%") (re.++ (re.union (re.union (str.to.re "-") (re.union (str.to.re "+") (re.union (str.to.re "0") (re.union (re.union (str.to.re "\u{20}") (re.union (str.to.re "\u{0b}") (re.union (str.to.re "\u{0a}") (re.union (str.to.re "\u{0d}") (re.union (str.to.re "\u{09}") (str.to.re "\u{0c}")))))) (str.to.re "#"))))) (str.to.re "")) (re.++ (re.union ((_ re.capture 1) (re.+ (re.range "0" "9"))) (str.to.re "")) (re.++ (re.union ((_ re.capture 2) (re.++ (str.to.re ".") (re.+ (re.range "0" "9")))) (str.to.re "")) (re.++ (re.union (re.union (str.to.re "h") (re.union (str.to.re "l") (str.to.re "I"))) (str.to.re "")) (re.union (str.to.re "c") (re.union (str.to.re "C") (re.union (str.to.re "d") (re.union (str.to.re "i") (re.union (str.to.re "o") (re.union (str.to.re "u") (re.union (str.to.re "x") (re.union (str.to.re "X") (re.union (str.to.re "e") (re.union (str.to.re "E") (re.union (str.to.re "f") (re.union (str.to.re "g") (re.union (str.to.re "G") (re.union (str.to.re "n") (re.union (str.to.re "p") (re.union (str.to.re "s") (str.to.re "S")))))))))))))))))))))) re.all))) (str.to.re "\x00")))
;match[1]==null
(check-sat)
(get-model)
(pop 1)
(push 1)
(assert (str.in.re var0 (re.* (re.range "\x01" "\xff"))))
(assert (not (str.in.re var0 (re.++ (re.*? re.allchar) (re.++ (re.++ (str.to.re "%") (re.++ (re.union (re.union (str.to.re "-") (re.union (str.to.re "+") (re.union (str.to.re "0") (re.union (re.union (str.to.re "\u{20}") (re.union (str.to.re "\u{0b}") (re.union (str.to.re "\u{0a}") (re.union (str.to.re "\u{0d}") (re.union (str.to.re "\u{09}") (str.to.re "\u{0c}")))))) (str.to.re "#"))))) (str.to.re "")) (re.++ (re.union ((_ re.capture 1) (re.+ (re.range "0" "9"))) (str.to.re "")) (re.++ (re.union ((_ re.capture 2) (re.++ (str.to.re ".") (re.+ (re.range "0" "9")))) (str.to.re "")) (re.++ (re.union (re.union (str.to.re "h") (re.union (str.to.re "l") (str.to.re "I"))) (str.to.re "")) (re.union (str.to.re "c") (re.union (str.to.re "C") (re.union (str.to.re "d") (re.union (str.to.re "i") (re.union (str.to.re "o") (re.union (str.to.re "u") (re.union (str.to.re "x") (re.union (str.to.re "X") (re.union (str.to.re "e") (re.union (str.to.re "E") (re.union (str.to.re "f") (re.union (str.to.re "g") (re.union (str.to.re "G") (re.union (str.to.re "n") (re.union (str.to.re "p") (re.union (str.to.re "s") (str.to.re "S")))))))))))))))))))))) re.all)))))	; match == null
(check-sat)
(get-model)
(pop 1)
(exit)
